sat
(
  (define-fun C1_VM5 () Int
    1)
  (define-fun C1_VM3 () Int
    0)
  (define-fun MemProv4 () Int
    30500)
  (define-fun C4_VM1 () Int
    1)
  (define-fun StorageProv4 () Int
    1000)
  (define-fun C2_VM5 () Int
    0)
  (define-fun C5_VM5 () Int
    0)
  (define-fun C4_VM4 () Int
    0)
  (define-fun ProcProv4 () Int
    4)
  (define-fun MemProv3 () Int
    3750)
  (define-fun C3_VM5 () Int
    0)
  (define-fun ProcProv2 () Int
    4)
  (define-fun C3_VM1 () Int
    0)
  (define-fun StorageProv5 () Int
    2000)
  (define-fun StorageProv3 () Int
    2000)
  (define-fun C3_VM3 () Int
    0)
  (define-fun PriceProv1 () Int
    128)
  (define-fun VM2Type () Int
    15)
  (define-fun C2_VM1 () Int
    0)
  (define-fun C5_VM2 () Int
    0)
  (define-fun MemProv5 () Int
    15000)
  (define-fun C4_VM5 () Int
    0)
  (define-fun VM5Type () Int
    13)
  (define-fun ProcProv5 () Int
    4)
  (define-fun PriceProv5 () Int
    402)
  (define-fun C2_VM2 () Int
    0)
  (define-fun C1_VM2 () Int
    0)
  (define-fun PriceProv3 () Int
    128)
  (define-fun StorageProv1 () Int
    2000)
  (define-fun VM3Type () Int
    17)
  (define-fun MemProv2 () Int
    30500)
  (define-fun C3_VM4 () Int
    0)
  (define-fun C5_VM3 () Int
    0)
  (define-fun ProcProv3 () Int
    2)
  (define-fun PriceProv4 () Int
    379)
  (define-fun C2_VM3 () Int
    1)
  (define-fun PriceProv2 () Int
    379)
  (define-fun C3_VM2 () Int
    1)
  (define-fun StorageProv2 () Int
    1000)
  (define-fun C4_VM3 () Int
    0)
  (define-fun C2_VM4 () Int
    0)
  (define-fun VM1Type () Int
    17)
  (define-fun ProcProv1 () Int
    2)
  (define-fun C4_VM2 () Int
    0)
  (define-fun C5_VM4 () Int
    1)
  (define-fun MemProv1 () Int
    3750)
  (define-fun C1_VM4 () Int
    0)
  (define-fun VM4Type () Int
    15)
  (define-fun C5_VM1 () Int
    0)
  (define-fun C1_VM1 () Int
    0)
)
(objectives
 ( 13)
 ((+ 0 PriceProv1 PriceProv2 PriceProv3 PriceProv4 PriceProv5) 1416)
)
(:added-eqs                   56741
 :arith-eq-adapter            28896
 :arith-bound-propagations-lp 1308
 :arith-conflicts             124
 :arith-diseq                 53522
 :arith-fixed-eqs             1094
 :arith-lower                 57795
 :arith-make-feasible         16569
 :arith-max-columns           112
 :arith-max-rows              17
 :arith-upper                 62375
 :binary-propagations         191418
 :conflicts                   1378
 :decisions                   30514
 :del-clause                  26514
 :final-checks                68
 :max-memory                  40.38
 :maxsat-cores                9
 :memory                      40.38
 :minimized-lits              4832
 :mk-bool-var                 56172
 :mk-clause                   27140
 :mk-clause-binary            1800
 :num-allocs                  21014440
 :num-checks                  108
 :pb-conflicts                603
 :pb-predicates               184
 :pb-propagations             1618
 :pb-resolves                 601
 :propagations                273283
 :restarts                    2
 :rlimit-count                2506854
 :solve-eqs-elim-vars         2
 :solve-eqs-steps             16
 :time                        0.17
 :total-time                  0.17)
